# source: Unicauca low-dimensional
# original path: uu\low-dimensional\f7_l-d_kp_7_50
# optimal value: 107
# format: n capacity, then weight value
7 50
31 70
10 20
20 39
19 37
4 7
3 5
6 10
